========================================================== 
File name: C:\DEGR\assets\definitions\MSRCPSP_Gen\1000_20_1024_5_A.def
Creation date: Sat May 06 09:20:48 CEST 2023
Website: http://imopse.ii.pwr.edu.pl/ 
Reference: 
Myszkowski P. B., Skowronski M. E., Olech L., Oslizlo K., 
Hybrid Ant Colony Optimization in solving Multi-Skill Resource-Constrained Project Scheduling Problem, 
Soft Computing, DOI: DOI 10.1007/s00500-014-1455-x 
========================================================== 
General characteristics: 
Tasks: 1000
Resources: 20
Precedence relations: 1023
Number of skill types: 5
========================================================== 
ResourceID 	 Salary 	 Skills 
1	 	 	75.8	 	 Q3: 1 	  Q0: 1 	  Q1: 0 	 
2	 	 	78.0	 	 Q2: 0 	 
3	 	 	44.1	 	 Q1: 1 	  Q3: 3 	  Q2: 1 	  Q0: 2 	 
4	 	 	8.1	 	 Q2: 1 	  Q1: 2 	  Q3: 0 	  Q0: 0 	 
5	 	 	14.7	 	 Q2: 2 	  Q0: 3 	  Q1: 0 	 
6	 	 	7.5	 	 Q4: 3 	  Q3: 2 	  Q0: 3 	 
7	 	 	81.2	 	 Q2: 0 	  Q1: 0 	 
8	 	 	91.3	 	 Q1: 0 	  Q0: 0 	 
9	 	 	49.6	 	 Q0: 1 	  Q2: 2 	  Q4: 3 	 
10	 	 	96.5	 	 Q0: 0 	  Q1: 1 	  Q4: 2 	  Q3: 1 	 
11	 	 	56.9	 	 Q0: 2 	  Q4: 3 	  Q1: 2 	 
12	 	 	24.6	 	 Q2: 1 	 
13	 	 	23.9	 	 Q0: 0 	  Q1: 1 	 
14	 	 	75.2	 	 Q3: 3 	  Q1: 3 	  Q2: 2 	 
15	 	 	25.3	 	 Q3: 0 	  Q2: 1 	 
16	 	 	7.0	 	 Q2: 2 	 
17	 	 	14.0	 	 Q2: 1 	 
18	 	 	85.7	 	 Q2: 1 	  Q0: 3 	  Q3: 1 	  Q4: 2 	 
19	 	 	98.3	 	 Q2: 3 	  Q4: 0 	  Q1: 0 	 
20	 	 	85.3	 	 Q2: 0 	  Q3: 0 	  Q4: 1 	  Q1: 0 	 
========================================================== 
TaskID 	 Duration 	 Skill 	 Predecessor IDs 
1	31	Q0:	0
2	39	Q4:	0
3	38	Q2:	3
4	24	Q4:	1
5	33	Q3:	0
6	27	Q3:	0
7	38	Q1:	1	6
8	18	Q2:	0
9	28	Q3:	3
10	13	Q3:	0
11	22	Q2:	1
12	23	Q0:	3
13	11	Q0:	0
14	14	Q0:	3
15	39	Q0:	0
16	32	Q3:	3
17	15	Q1:	2
18	38	Q4:	2
19	32	Q1:	1
20	37	Q2:	1
21	40	Q2:	0
22	27	Q0:	1
23	38	Q1:	3
24	34	Q4:	2
25	38	Q2:	2
26	39	Q3:	2	14
27	12	Q2:	3	26
28	32	Q2:	0
29	21	Q2:	2
30	26	Q0:	0
31	19	Q1:	1
32	30	Q0:	1
33	21	Q2:	1
34	32	Q3:	1
35	11	Q3:	0
36	28	Q2:	2
37	25	Q1:	1
38	10	Q1:	3
39	28	Q3:	3
40	21	Q2:	2	13
41	11	Q4:	0
42	33	Q2:	2
43	40	Q2:	2
44	31	Q4:	3
45	27	Q1:	0
46	9	Q3:	1
47	21	Q1:	1
48	39	Q2:	1
49	10	Q1:	1
50	32	Q0:	3	37
51	30	Q1:	1
52	18	Q1:	3
53	9	Q1:	2
54	33	Q2:	2
55	12	Q0:	3
56	28	Q3:	2
57	38	Q1:	0
58	32	Q1:	2
59	15	Q4:	3
60	15	Q0:	1
61	31	Q3:	1
62	15	Q2:	3
63	34	Q1:	0
64	29	Q3:	2
65	30	Q3:	1
66	9	Q4:	2
67	35	Q0:	0
68	26	Q4:	0
69	38	Q4:	2	59
70	18	Q1:	0
71	37	Q0:	0
72	30	Q4:	1
73	13	Q3:	0
74	31	Q0:	2
75	26	Q2:	0
76	24	Q0:	2
77	11	Q2:	2	74
78	11	Q1:	0
79	35	Q1:	0
80	26	Q2:	0
81	20	Q4:	3
82	38	Q1:	0
83	12	Q2:	2
84	19	Q1:	2
85	19	Q0:	1	66
86	24	Q4:	1
87	38	Q3:	2
88	35	Q1:	1
89	9	Q1:	0	52
90	12	Q0:	1
91	12	Q4:	2
92	33	Q4:	0
93	32	Q1:	0	76	42
94	38	Q2:	1	55
95	16	Q0:	3
96	22	Q1:	1
97	34	Q2:	1
98	32	Q3:	2
99	28	Q1:	3
100	31	Q2:	1
101	21	Q1:	0
102	11	Q1:	2	90
103	28	Q1:	3
104	37	Q1:	2
105	12	Q1:	1
106	40	Q3:	2
107	23	Q2:	3
108	16	Q3:	2
109	13	Q1:	1
110	22	Q4:	1
111	32	Q1:	2	15
112	11	Q3:	1
113	40	Q1:	3
114	15	Q2:	2
115	12	Q0:	0
116	31	Q2:	1	78
117	9	Q1:	3
118	29	Q2:	0	5
119	37	Q4:	2
120	28	Q3:	1
121	24	Q2:	2
122	14	Q2:	3
123	10	Q1:	0
124	22	Q0:	2
125	12	Q4:	2
126	29	Q1:	2	84
127	16	Q0:	3
128	19	Q0:	0
129	21	Q4:	3	113
130	16	Q3:	2
131	24	Q2:	0	129
132	18	Q3:	3
133	35	Q1:	2
134	10	Q2:	0	129
135	21	Q3:	1
136	12	Q1:	0	106
137	39	Q4:	0
138	39	Q4:	0	29
139	18	Q1:	3
140	37	Q4:	2
141	31	Q1:	2
142	21	Q0:	3	115
143	12	Q2:	0
144	31	Q2:	0
145	30	Q1:	1
146	17	Q2:	3
147	23	Q1:	0
148	29	Q1:	3
149	36	Q3:	0
150	11	Q1:	2
151	34	Q1:	0
152	24	Q3:	0
153	33	Q4:	3	6
154	29	Q3:	3
155	11	Q1:	1
156	26	Q4:	1	104
157	15	Q4:	2
158	21	Q3:	3
159	9	Q3:	1
160	33	Q0:	1
161	29	Q1:	2
162	40	Q3:	0
163	20	Q4:	2
164	20	Q2:	1	146
165	14	Q3:	0
166	26	Q1:	2
167	39	Q4:	2
168	19	Q2:	2
169	21	Q0:	3
170	25	Q1:	3	124
171	22	Q1:	2
172	15	Q3:	2
173	29	Q1:	1	125
174	37	Q3:	3
175	35	Q3:	1	154
176	28	Q2:	1
177	16	Q0:	3	124
178	27	Q4:	2
179	14	Q4:	3	64
180	9	Q2:	0
181	13	Q4:	1
182	31	Q2:	3
183	24	Q4:	1
184	14	Q3:	1
185	31	Q1:	3	65	127
186	12	Q4:	2	55
187	39	Q2:	0
188	24	Q1:	2
189	33	Q0:	0
190	9	Q4:	0	146	105
191	12	Q1:	2	179
192	27	Q3:	2
193	22	Q4:	0
194	22	Q3:	2
195	35	Q0:	3	100
196	36	Q3:	1
197	15	Q3:	1	9	165
198	38	Q0:	1
199	40	Q2:	0
200	20	Q0:	1	117
201	17	Q0:	2
202	23	Q3:	0
203	26	Q1:	2
204	23	Q3:	2
205	34	Q2:	2
206	24	Q4:	1
207	26	Q1:	0	23
208	22	Q2:	0
209	11	Q4:	0	164
210	20	Q2:	1
211	21	Q0:	3	176	145
212	26	Q1:	3
213	27	Q0:	0
214	35	Q0:	3
215	31	Q4:	0	50
216	23	Q4:	0	149
217	12	Q0:	0	194	127
218	33	Q2:	3
219	31	Q4:	2
220	18	Q2:	2
221	38	Q3:	2
222	12	Q3:	1	194
223	16	Q2:	1	221
224	29	Q3:	1
225	9	Q0:	0
226	15	Q3:	2
227	39	Q3:	0	39	75	222
228	13	Q3:	3
229	35	Q0:	1	175
230	34	Q0:	3
231	39	Q1:	0
232	13	Q2:	2	206
233	18	Q4:	3
234	15	Q0:	2	223
235	39	Q0:	2	203	172
236	29	Q1:	2	143
237	11	Q4:	3
238	40	Q3:	1
239	28	Q3:	3
240	10	Q3:	3
241	34	Q3:	0	187	62
242	40	Q2:	2
243	17	Q0:	2
244	19	Q2:	2
245	23	Q4:	1
246	29	Q3:	1	168	177
247	40	Q3:	0
248	31	Q1:	3
249	21	Q3:	2
250	12	Q0:	3
251	10	Q2:	0	81
252	11	Q3:	2	112
253	29	Q1:	2
254	40	Q0:	2	229
255	25	Q1:	1	36	228
256	34	Q0:	0	183	152
257	34	Q1:	3	15
258	24	Q2:	1	119
259	32	Q2:	3
260	26	Q0:	0
261	13	Q0:	2
262	38	Q3:	1
263	23	Q0:	2
264	12	Q3:	2	175	196	56
265	30	Q1:	1	209	68
266	39	Q1:	3	264
267	26	Q3:	3
268	22	Q1:	0	38	183
269	31	Q4:	3
270	9	Q1:	1
271	26	Q1:	2
272	25	Q1:	0
273	11	Q1:	1
274	21	Q2:	2	161
275	25	Q3:	0	169	232
276	31	Q1:	2
277	12	Q3:	2
278	13	Q3:	3	229
279	19	Q2:	1	209
280	21	Q1:	1	176
281	31	Q4:	1	148
282	14	Q4:	3
283	28	Q4:	3	151
284	9	Q4:	3
285	39	Q3:	3	156	261
286	11	Q2:	1
287	36	Q1:	2
288	39	Q4:	2	147
289	19	Q1:	1	217	95
290	30	Q1:	3	189	71
291	14	Q2:	2
292	23	Q2:	3
293	13	Q1:	2
294	39	Q1:	3	162
295	29	Q2:	2
296	38	Q2:	3	195
297	21	Q2:	1
298	29	Q1:	3
299	25	Q2:	1	222
300	34	Q0:	1
301	11	Q2:	2	205
302	21	Q3:	2	167	36
303	19	Q3:	3
304	25	Q1:	2
305	37	Q4:	2	244	288
306	36	Q0:	3	220
307	35	Q1:	0
308	17	Q3:	3	120
309	31	Q2:	2	237
310	9	Q3:	2
311	24	Q0:	2	152	250
312	38	Q4:	3
313	40	Q1:	3	311
314	32	Q4:	3	305	307
315	26	Q0:	0	179
316	19	Q2:	0	41
317	9	Q3:	1	291	141
318	32	Q1:	3
319	30	Q1:	2	210
320	26	Q1:	3	33
321	30	Q4:	2	300
322	16	Q0:	0	281	156
323	18	Q1:	3
324	16	Q1:	3
325	29	Q2:	1	235	100	148
326	33	Q3:	0	147
327	37	Q0:	0	63
328	24	Q3:	1
329	26	Q4:	1	63
330	25	Q0:	0
331	11	Q3:	3
332	34	Q0:	1
333	26	Q1:	2
334	35	Q4:	3
335	21	Q1:	0
336	27	Q4:	2
337	9	Q3:	1
338	13	Q0:	3	109
339	32	Q4:	2	156	277
340	14	Q4:	0	292
341	12	Q4:	0
342	13	Q2:	2	22	125
343	39	Q2:	1	290
344	27	Q0:	3	146	89
345	28	Q3:	1	132
346	9	Q4:	2
347	25	Q1:	2
348	35	Q0:	0
349	38	Q1:	2	298	156
350	35	Q2:	0	348
351	28	Q1:	2
352	10	Q4:	0
353	36	Q3:	3
354	40	Q3:	3	65
355	39	Q0:	0	230
356	36	Q0:	0
357	13	Q3:	0	149
358	36	Q4:	1
359	37	Q4:	0	266
360	39	Q1:	0
361	39	Q3:	2
362	37	Q2:	3	224
363	18	Q0:	3	135	107
364	20	Q1:	0	68	357
365	27	Q0:	0	16
366	39	Q2:	3	72
367	26	Q2:	0
368	12	Q1:	2	366
369	26	Q0:	2
370	28	Q4:	1	283
371	28	Q1:	1	138
372	28	Q4:	2
373	14	Q0:	2
374	39	Q1:	2
375	13	Q3:	3	209
376	11	Q3:	1
377	40	Q0:	0	340
378	20	Q1:	1	123
379	31	Q4:	0	127
380	16	Q3:	2
381	10	Q3:	1	219	42
382	11	Q0:	3	94	289
383	38	Q3:	3	373
384	40	Q0:	0	56
385	36	Q3:	0
386	18	Q2:	0
387	38	Q1:	1
388	26	Q2:	1
389	20	Q3:	2	130
390	37	Q1:	3
391	33	Q2:	0
392	20	Q0:	0	53
393	39	Q0:	2	2
394	10	Q0:	3	190	276
395	28	Q0:	2
396	33	Q4:	3	281
397	11	Q3:	0
398	28	Q3:	2
399	17	Q2:	3	147	171	157
400	17	Q3:	3
401	38	Q2:	1	222
402	37	Q2:	1	158
403	12	Q4:	3	350	348	294
404	31	Q1:	1
405	10	Q2:	0
406	24	Q1:	2
407	27	Q4:	0	271
408	40	Q3:	2
409	32	Q3:	3
410	25	Q3:	2	227
411	17	Q1:	0	381
412	21	Q1:	1	359
413	29	Q3:	2	341
414	18	Q4:	2	219	383
415	34	Q0:	1	236
416	39	Q3:	0	305	240	205
417	21	Q4:	2
418	38	Q1:	3	87	338
419	26	Q2:	0	67
420	27	Q2:	2	9
421	31	Q2:	2
422	35	Q1:	0	111
423	27	Q0:	2	284	334
424	17	Q4:	0	360	68	74
425	28	Q1:	0
426	25	Q2:	1
427	11	Q1:	3
428	37	Q3:	2	24	217
429	16	Q3:	0	388
430	18	Q0:	2
431	19	Q2:	2	4
432	17	Q1:	2	238
433	13	Q3:	1	196
434	27	Q0:	1	338	404
435	29	Q3:	3
436	23	Q1:	2
437	12	Q3:	0	134
438	13	Q1:	2	16
439	25	Q3:	0
440	26	Q4:	2	248
441	29	Q0:	3	430	271
442	37	Q0:	2
443	40	Q2:	3	271
444	38	Q4:	1	138
445	21	Q1:	0	348
446	12	Q3:	0	151
447	38	Q1:	1	78	220	210
448	13	Q3:	0	394	101	254
449	24	Q2:	3	145	139
450	35	Q4:	3
451	17	Q3:	3	108
452	24	Q3:	0
453	12	Q0:	1
454	9	Q1:	3	238
455	12	Q2:	3
456	29	Q3:	1
457	39	Q1:	0	255
458	22	Q4:	0
459	19	Q3:	2
460	11	Q0:	3	90	221	81
461	13	Q1:	1	239
462	38	Q1:	1	358
463	21	Q1:	2
464	35	Q0:	3	376	37	136	214	52
465	9	Q3:	3	432
466	18	Q2:	2
467	14	Q1:	3	97
468	12	Q4:	3
469	30	Q2:	1
470	16	Q3:	0
471	37	Q1:	2	79	429
472	34	Q3:	1	410
473	24	Q3:	2	58	277	141
474	12	Q0:	3	76
475	10	Q3:	2
476	13	Q0:	2	205
477	30	Q3:	3
478	31	Q4:	2
479	27	Q0:	1	318	427
480	35	Q3:	2
481	33	Q2:	3	131
482	19	Q3:	0	224
483	29	Q3:	2
484	26	Q0:	2	312	271
485	15	Q1:	1
486	29	Q2:	2	314
487	30	Q3:	2	192	72
488	15	Q0:	2	329
489	34	Q3:	2
490	20	Q2:	1	406
491	22	Q4:	2
492	11	Q1:	2	63
493	14	Q3:	0
494	34	Q2:	2
495	18	Q4:	2
496	10	Q4:	1	136	265	412	160
497	10	Q3:	2	297
498	37	Q3:	1	194	468	393
499	20	Q0:	3	200
500	28	Q0:	0
501	21	Q2:	1
502	24	Q3:	2	361
503	20	Q1:	1	99
504	38	Q0:	1
505	24	Q2:	1	177
506	35	Q0:	0
507	16	Q1:	3	236
508	10	Q1:	3
509	30	Q4:	0	187	62	301
510	11	Q0:	0
511	27	Q3:	0	237
512	20	Q2:	3	110
513	26	Q4:	3	401	276	268
514	25	Q2:	1	164
515	24	Q4:	1	184	458
516	22	Q3:	3	371
517	23	Q0:	3	355
518	18	Q1:	2	85
519	26	Q0:	3	497	279	480
520	30	Q1:	1	21
521	21	Q3:	2	347
522	13	Q1:	1	354	511
523	15	Q1:	0
524	17	Q4:	3
525	16	Q2:	2	107
526	37	Q0:	0	17
527	12	Q1:	0	43
528	18	Q2:	1	341	356
529	16	Q0:	1	260	495	215	107	300
530	12	Q2:	1	526	76
531	35	Q3:	2	165	476	267
532	26	Q2:	2	46
533	28	Q1:	1	326
534	33	Q3:	3	249
535	26	Q3:	1	272
536	32	Q1:	2
537	23	Q4:	2	379
538	40	Q1:	1	379	305
539	18	Q2:	1	215
540	33	Q3:	0
541	40	Q0:	0	25	27
542	20	Q0:	2	498
543	38	Q3:	3
544	16	Q1:	2	65	308
545	27	Q0:	0	184
546	37	Q2:	2	536
547	19	Q2:	1
548	10	Q2:	2	45
549	9	Q0:	1
550	14	Q0:	1	235
551	15	Q4:	1	139	361	57
552	31	Q2:	3
553	27	Q3:	3	88
554	17	Q3:	0
555	34	Q3:	3	75	345
556	13	Q3:	2
557	25	Q0:	3
558	21	Q3:	3
559	33	Q1:	1	44
560	26	Q2:	1	211
561	17	Q2:	0	466
562	15	Q0:	0
563	31	Q3:	0	93	443	325
564	40	Q3:	3
565	12	Q1:	3	256
566	14	Q0:	2
567	36	Q3:	3
568	27	Q1:	3	245
569	39	Q1:	0	126	454
570	38	Q4:	1
571	27	Q4:	3	318
572	12	Q4:	1
573	17	Q2:	3	253	73	262
574	20	Q2:	1	241	248
575	17	Q0:	1
576	25	Q2:	3
577	26	Q0:	3	426	370
578	18	Q0:	2
579	15	Q3:	3
580	33	Q4:	0	153
581	18	Q4:	1
582	39	Q1:	0	269
583	19	Q1:	1
584	27	Q2:	0	311
585	19	Q0:	2	574
586	16	Q2:	0	432	90	53
587	16	Q0:	2
588	10	Q0:	2	356
589	16	Q0:	1	61
590	17	Q3:	0
591	38	Q2:	3	1	143	587
592	37	Q1:	0	356	44
593	39	Q2:	2
594	12	Q4:	0	19	251	242	161
595	27	Q4:	1
596	39	Q4:	0	496	226	553	390
597	10	Q2:	1
598	23	Q1:	0
599	13	Q4:	0	20
600	19	Q4:	1
601	36	Q1:	3	390	269
602	13	Q4:	0
603	38	Q4:	3	235	182	287
604	22	Q1:	3
605	23	Q4:	0	436	188
606	26	Q1:	0	567	520	29
607	38	Q3:	3
608	23	Q3:	2	350
609	27	Q1:	2
610	9	Q0:	1	145
611	21	Q1:	2
612	36	Q4:	3
613	17	Q3:	0
614	23	Q1:	3	257
615	25	Q3:	0	553	533
616	28	Q2:	1	278
617	10	Q2:	1
618	15	Q4:	2	249	422	171
619	28	Q2:	1
620	13	Q0:	3	341
621	39	Q1:	3
622	23	Q2:	3
623	34	Q4:	0	613
624	16	Q2:	0	193	522
625	37	Q2:	3	222	251
626	28	Q0:	1	293
627	18	Q1:	2	486	338
628	35	Q2:	0	260	562
629	13	Q3:	2	291
630	21	Q2:	0
631	34	Q1:	1
632	34	Q2:	1	459	497	628
633	40	Q0:	2
634	11	Q2:	2	603
635	32	Q1:	0	113	412
636	33	Q2:	2	303	331
637	33	Q1:	3
638	12	Q2:	0	482	170
639	38	Q1:	2	512
640	22	Q2:	0
641	40	Q2:	3
642	17	Q2:	0
643	32	Q0:	0	100
644	12	Q3:	3	219	258
645	26	Q0:	1
646	14	Q1:	3	344	161	102
647	28	Q1:	2	263
648	26	Q4:	0	536	508
649	33	Q4:	2
650	11	Q3:	0
651	18	Q0:	3	34	584
652	30	Q0:	3	94
653	37	Q2:	1	464
654	9	Q3:	0	21	428
655	30	Q4:	0
656	20	Q0:	2	313
657	23	Q1:	1	196	10	49	381
658	38	Q4:	2	398	103
659	27	Q4:	2	415	252
660	18	Q4:	3	235
661	16	Q2:	2	236
662	31	Q0:	3	198	374	93	636
663	18	Q3:	2	320
664	17	Q2:	1
665	16	Q2:	1
666	14	Q0:	1	301	498
667	22	Q3:	0
668	14	Q1:	3	261	335
669	25	Q0:	1
670	19	Q3:	0	579	397
671	27	Q0:	3
672	39	Q0:	0	392	588	323
673	23	Q4:	0	572
674	32	Q1:	2	252
675	13	Q4:	0	12
676	32	Q2:	3	427
677	15	Q0:	3	30
678	19	Q3:	0	178	544
679	16	Q0:	2	547
680	12	Q0:	1	245
681	40	Q3:	2	312
682	32	Q2:	3	77
683	20	Q3:	3	554	40	392
684	21	Q1:	1	270
685	24	Q1:	3	593
686	28	Q3:	0	169
687	16	Q2:	2	251
688	15	Q3:	3	416	312	682
689	35	Q4:	2
690	25	Q3:	1	157
691	20	Q4:	3	476
692	15	Q3:	2	42
693	35	Q2:	3	503	239
694	12	Q3:	3	441	388	604	154	182
695	25	Q2:	2	581
696	19	Q3:	2	425	606	294
697	28	Q0:	0
698	16	Q0:	2	126	272
699	39	Q2:	3	409	153
700	18	Q1:	3	98	289	162
701	28	Q2:	0	163
702	15	Q0:	1	415
703	10	Q3:	0
704	15	Q0:	3	81	571
705	13	Q2:	1	157
706	26	Q1:	0	31	182
707	12	Q4:	1	550	675	396	445	413
708	27	Q0:	3	149
709	26	Q0:	1	356
710	39	Q0:	1	674	260
711	20	Q2:	2	613	451
712	15	Q2:	0	195
713	14	Q4:	1	196	710
714	20	Q4:	1	425	610
715	23	Q3:	2	98	97	404
716	19	Q1:	1	380
717	22	Q1:	1	199	164
718	18	Q1:	3	672
719	27	Q1:	3	291
720	18	Q4:	2
721	28	Q4:	1	119	661	559
722	39	Q1:	3
723	32	Q4:	1
724	40	Q4:	3	66
725	13	Q0:	2
726	29	Q1:	1	251	538
727	35	Q1:	3	591	714	32	255
728	36	Q0:	2	681	705
729	40	Q2:	2	546	36	372
730	10	Q4:	2	450	39
731	36	Q0:	0
732	17	Q1:	3	551
733	33	Q2:	1	676	427
734	21	Q3:	0	309	105	8
735	14	Q0:	1	26	413	255
736	28	Q0:	2	300	127
737	21	Q4:	2	370
738	21	Q3:	2	652	352
739	34	Q2:	3	180	726
740	28	Q0:	0	227
741	11	Q3:	3	348	38	437
742	22	Q3:	0
743	22	Q2:	3
744	38	Q0:	2	227	522
745	22	Q3:	2
746	16	Q1:	0	652	101
747	30	Q1:	2	2	480
748	32	Q3:	0	732
749	32	Q4:	2
750	25	Q4:	1	303
751	39	Q3:	1	665
752	29	Q4:	0	553	604
753	20	Q3:	3	32	355
754	21	Q4:	3	567	659	485
755	39	Q2:	2
756	15	Q4:	1	84
757	20	Q1:	3	199	433
758	11	Q4:	3	754	514
759	9	Q0:	2	610
760	25	Q4:	0	44	424
761	26	Q0:	3	760
762	14	Q2:	3	410	549
763	15	Q0:	1	132	333	680
764	34	Q3:	0	608	521
765	30	Q0:	0	756
766	13	Q3:	2	156
767	36	Q1:	1	550
768	28	Q4:	0
769	22	Q0:	1	447
770	40	Q4:	2	377	747
771	13	Q1:	3	284	262
772	20	Q1:	1	603	37
773	37	Q0:	1	520
774	10	Q0:	1
775	24	Q0:	3
776	10	Q1:	3	275	423	248
777	14	Q3:	3
778	31	Q4:	2
779	39	Q1:	2	336	621
780	19	Q0:	0	705
781	14	Q0:	0	167	526
782	19	Q2:	2	729	672
783	20	Q1:	0	169	499
784	26	Q4:	0
785	24	Q0:	1	391	420	106
786	9	Q2:	2	640
787	33	Q4:	2	404	391	363	238
788	16	Q3:	1	34	757	619
789	40	Q1:	0	166	95
790	9	Q4:	2
791	33	Q3:	2
792	15	Q3:	1
793	9	Q0:	2	510	489	431
794	10	Q3:	3	667
795	10	Q0:	2	121	422
796	25	Q0:	0	631
797	25	Q3:	2	95
798	37	Q2:	0
799	16	Q2:	0	257	29
800	10	Q4:	3
801	26	Q4:	0	489
802	30	Q2:	3	629	519
803	19	Q2:	1	414	272	151
804	11	Q2:	2
805	21	Q0:	0	162	587	381	113
806	40	Q2:	3
807	31	Q4:	3
808	34	Q2:	3	485	230
809	21	Q0:	0	449	748
810	23	Q0:	3	83
811	23	Q2:	0	95	32
812	36	Q3:	0	792
813	36	Q2:	1
814	36	Q0:	1	170	138
815	34	Q0:	3	19
816	12	Q0:	3	85
817	29	Q4:	1	195	669	163
818	33	Q2:	1	462	813	776
819	40	Q4:	3	746
820	21	Q3:	1	472	56	642	383
821	29	Q1:	3	11	392
822	27	Q4:	0	647	282
823	14	Q1:	2	651
824	36	Q4:	2	242
825	32	Q2:	1	583	785
826	20	Q2:	0	532
827	13	Q0:	3	806
828	28	Q0:	3
829	35	Q0:	0	258
830	32	Q2:	3	812
831	22	Q0:	1
832	19	Q4:	1	334	555
833	15	Q1:	2	315
834	16	Q1:	0	129
835	26	Q3:	2
836	33	Q1:	3	787
837	36	Q4:	0	6
838	28	Q2:	3	132	302	36	783
839	10	Q1:	3	223	189	530
840	29	Q2:	2	393	398
841	39	Q4:	1	327
842	33	Q2:	0	261	329
843	20	Q4:	0
844	29	Q4:	0	529	592
845	14	Q1:	3	302	593
846	14	Q4:	3
847	19	Q2:	1	65	269
848	24	Q4:	1	58
849	36	Q4:	1	23	237
850	21	Q4:	0	618	457	355	210	422
851	19	Q2:	3	691
852	17	Q2:	3	613	399	711	489
853	37	Q0:	0
854	10	Q0:	2	220	86
855	27	Q0:	2
856	29	Q0:	2	555
857	17	Q1:	1	663	572
858	27	Q4:	2	490
859	28	Q3:	0	526	629	273	535	227
860	29	Q0:	3	486	417	502	483	49
861	22	Q1:	3	709
862	20	Q0:	2	385
863	27	Q0:	2	664	578
864	14	Q2:	2
865	33	Q3:	0	224	135	487	548	374
866	17	Q4:	3	303	185
867	33	Q0:	1	620
868	29	Q3:	0
869	34	Q2:	3	604
870	29	Q4:	3	811
871	18	Q3:	3	258	594	763
872	32	Q1:	2
873	16	Q3:	0
874	24	Q2:	1	848	427	164	745
875	37	Q0:	3	608
876	32	Q0:	2	198
877	37	Q3:	3	494	257	683
878	11	Q0:	0	441
879	34	Q0:	0	674	623
880	36	Q4:	2	40
881	23	Q0:	0
882	35	Q0:	2	631	584
883	22	Q2:	1	1	635
884	12	Q1:	3	671	443
885	30	Q1:	2	623	365
886	17	Q4:	2	373	141	273
887	31	Q4:	3	517
888	14	Q4:	1	9
889	11	Q1:	3	22
890	35	Q0:	1	598	771	171
891	20	Q0:	3	760	799	35
892	29	Q4:	1	831	634	628	385
893	29	Q2:	3	446	772	388
894	13	Q2:	0	722	242
895	32	Q4:	0	615	642	182	609
896	21	Q4:	2	552	510
897	14	Q4:	2	384	783	59
898	21	Q0:	0	506	634	448
899	11	Q1:	1	20
900	34	Q2:	1	560
901	10	Q1:	1	148	510
902	14	Q2:	1	403
903	16	Q4:	3	853	310	445	673
904	10	Q3:	0	393	573
905	9	Q1:	1	326	252	403
906	35	Q1:	0	351	851
907	26	Q0:	1	503	116	101	217
908	11	Q4:	3	90	650	814
909	30	Q3:	0	789	570
910	27	Q2:	0	579	872	437	109
911	22	Q2:	2	817	199	109
912	20	Q3:	1
913	35	Q3:	1	853	437
914	28	Q0:	3	26	517	522	651
915	13	Q3:	2	574
916	35	Q1:	3	281	59	911
917	24	Q4:	1
918	20	Q3:	0	117	633
919	9	Q0:	0
920	13	Q4:	2	875	830
921	22	Q2:	3
922	40	Q1:	3	358	818	343	435
923	12	Q2:	2	88
924	27	Q3:	0	636
925	9	Q0:	3	128	264
926	24	Q0:	1	260	769	42
927	25	Q0:	0	907	651	810	421
928	15	Q1:	2	727	702
929	12	Q0:	0	928
930	38	Q4:	2	21	875
931	11	Q4:	1	405	36
932	12	Q2:	2	107	192
933	26	Q3:	2	98
934	18	Q4:	3	91	509
935	13	Q2:	0	733	314	96
936	22	Q0:	0	534
937	25	Q0:	3	449
938	29	Q2:	0	879	361	672	446
939	29	Q0:	0	307
940	39	Q1:	3	826	828	30
941	24	Q2:	2	571	417
942	15	Q1:	0	75	875	133	364
943	12	Q1:	1	437
944	18	Q3:	1
945	30	Q0:	0	606	103	443
946	27	Q0:	3
947	16	Q4:	2	126
948	35	Q0:	3	474	609	211
949	17	Q4:	3	32	655	142	245	788
950	9	Q3:	0	185	270
951	18	Q0:	0	303
952	11	Q2:	2	15
953	35	Q1:	2
954	40	Q4:	1	659	828	866	58
955	21	Q2:	2	655	149	636
956	33	Q2:	3	339	941	568	63	50	693
957	36	Q0:	1	172	546	911	630	151
958	25	Q0:	2	239	478	474	794
959	30	Q4:	2
960	23	Q3:	2	315	353	161	417
961	14	Q3:	3	670	872
962	37	Q4:	2	47	648
963	26	Q2:	3	308	822
964	22	Q2:	1	603	451	179	676
965	40	Q2:	0	839
966	25	Q0:	2	373	331
967	23	Q4:	3	897	935
968	14	Q0:	3
969	33	Q4:	0	202
970	36	Q2:	3	404	345
971	40	Q2:	3	814	27
972	32	Q1:	0	415
973	34	Q1:	1	564	846
974	37	Q0:	1	58	304	583
975	21	Q1:	3	672	226
976	31	Q3:	1	93	39	370
977	23	Q0:	0	924	706	859
978	14	Q0:	1	545
979	9	Q1:	0	141	480
980	23	Q0:	3	670	663	857
981	20	Q4:	3	296	34
982	27	Q2:	0	759	303	494
983	25	Q0:	1	821	63
984	25	Q1:	0
985	20	Q1:	1	473	470	185	975	364
986	21	Q0:	1	965	41	345
987	12	Q3:	1	867
988	38	Q2:	2	518	687	798	229
989	22	Q1:	1	963
990	37	Q0:	2	610
991	38	Q0:	1	488	618	660
992	18	Q3:	0	547
993	26	Q4:	0	307	244
994	10	Q4:	1	768
995	23	Q4:	0	128	774	446
996	38	Q0:	3	236
997	11	Q0:	3
998	40	Q4:	2	173
999	38	Q2:	2	176
1000	26	Q4:	0	64	246
========================================================== 